0 1962
1 1842
2 1674
3 1570
4 1411
5 1382
6 1340
7 1330
8 1276
9 1235
10 1221
11 1193
12 1181
13 1154
14 1091
15 1089
16 1078
17 1074
18 1058
19 1058
20 1057
21 1028
22 1028
23 998
24 998
25 980
26 977
27 976
28 971
29 935
30 930
31 925
32 917
33 917
34 910
35 906
36 895
37 891
38 882
39 882
40 882
41 882
42 875
43 875
44 875
45 875
46 875
47 871
48 871
49 871
50 870
51 870
52 870
53 870
54 870
55 870
56 870
57 870
58 870
59 870
60 866
61 866
62 866
63 866
64 866
65 866
66 866
67 866
68 866
69 866
70 866
71 866
72 866
73 866
74 866
75 866
76 866
77 866
78 866
79 866
80 866
81 866
82 866
83 866
84 866
85 866
86 866
87 866
88 866
89 866
90 847
91 847
92 847
93 847
94 847
95 847
96 847
97 847
98 847
99 847
100 847
101 847
102 847
103 847
104 847
105 847
106 847
107 847
108 847
109 847
110 847
111 847
112 847
113 847
114 847
115 847
116 847
117 847
118 847
119 847
120 847
121 847
122 847
123 847
124 847
125 847
126 847
127 847
128 847
129 847
130 847
131 847
132 847
133 847
134 847
135 847
136 847
137 847
138 847
139 847
140 847
141 847
142 847
143 847
144 847
145 847
146 847
147 847
148 847
149 847
150 847
151 847
152 847
153 847
154 847
155 847
156 847
157 847
158 847
159 847
160 847
161 847
162 847
163 847
164 847
165 847
166 847
167 847
168 847
169 847
170 847
171 847
172 847
173 847
174 847
175 847
176 847
177 847
178 847
179 847
180 847
181 847
182 847
183 847
184 847
185 847
186 847
187 847
188 847
189 847
190 847
191 847
192 847
193 847
194 847
195 847
196 847
197 847
198 847
199 847
200 847
201 847
202 847
203 847
204 847
205 847
206 847
207 847
208 847
209 847
210 847
211 847
212 847
213 847
214 847
215 847
216 847
217 847
218 847
219 847
220 847
221 847
222 847
223 847
224 847
225 847
226 847
227 847
228 847
229 847
230 847
231 847
232 847
233 847
234 847
235 847
236 847
237 847
238 847
239 847
240 847
241 847
242 847
243 847
244 847
245 847
246 847
247 847
248 847
249 847
250 847
251 847
252 847
253 847
254 847
255 847
256 847
257 847
258 847
259 847
260 847
261 847
262 847
263 847
264 847
265 847
266 847
267 847
268 847
269 847
270 847
271 847
272 847
273 847
274 847
275 847
276 847
277 847
278 847
279 847
280 847
281 847
282 847
283 847
284 847
285 847
286 847
287 847
288 847
289 847
290 847
291 847
292 847
293 847
294 847
295 847
296 847
297 847
298 847
299 847
300 847
301 847
302 847
303 847
304 847
305 847
306 847
307 847
308 847
309 847
310 847
311 847
312 847
313 847
314 847
315 847
316 847
317 847
318 847
319 847
320 847
321 847
322 847
323 847
324 847
325 847
326 847
327 847
328 847
329 847
330 847
331 847
332 847
333 847
334 847
335 847
336 847
337 847
338 847
339 847
340 847
341 847
342 847
343 847
344 847
345 847
346 847
347 847
348 847
349 847
350 847
351 847
352 847
353 847
354 847
355 847
356 847
357 847
358 847
359 847
360 847
361 847
362 847
363 847
364 847
365 847
366 847
367 847
368 847
369 847
370 847
371 847
372 847
373 847
374 847
375 847
376 847
377 847
378 847
379 847
380 847
381 847
382 847
383 847
384 847
385 847
386 847
387 847
388 847
389 847
390 847
391 847
392 847
393 847
394 847
395 847
396 847
397 847
398 847
399 847
400 847
401 847
402 847
403 847
404 847
405 847
406 847
407 847
408 847
409 847
410 847
411 847
412 847
413 847
414 847
415 847
416 847
417 847
418 847
419 847
420 847
421 847
422 847
423 847
424 847
425 847
426 847
427 847
428 847
429 847
430 847
431 847
432 847
433 847
434 847
435 847
436 847
437 847
438 847
439 847
440 847
441 847
442 847
443 847
444 847
445 847
446 847
447 847
448 847
449 847
450 847
451 847
452 847
453 847
454 847
455 847
456 847
457 847
458 847
459 847
460 847
461 847
462 847
463 847
464 847
465 847
466 847
467 847
468 847
469 847
470 847
471 847
472 847
473 847
474 847
475 847
476 847
477 847
478 847
479 847
480 847
481 847
482 847
483 847
484 847
485 847
486 847
487 847
488 847
489 847
490 847
491 847
492 847
493 847
494 847
495 847
496 847
497 847
498 847
499 847
500 847
501 847
502 847
503 847
504 847
505 847
506 847
507 847
508 847
509 847
510 847
511 847
512 847
513 847
514 847
515 847
516 847
517 847
518 847
519 847
520 847
521 847
522 847
523 847
524 847
525 847
526 847
527 847
528 847
529 847
530 847
531 847
532 847
533 847
534 847
535 847
536 847
537 847
538 847
539 847
540 847
541 847
542 847
543 847
544 847
545 847
546 847
547 847
548 847
549 847
550 847
551 847
552 847
553 847
554 847
555 847
556 847
557 847
558 847
559 847
560 847
561 847
562 847
563 847
564 847
565 847
566 847
567 847
568 847
569 847
570 847
571 847
572 847
573 847
574 847
575 847
576 847
577 847
578 847
579 847
580 847
581 847
582 847
583 847
584 847
585 847
586 847
587 847
588 847
589 847
590 847
591 847
592 847
593 847
594 847
595 847
596 847
597 847
598 847
599 847
600 847
601 847
602 847
603 847
604 847
605 847
606 847
607 847
608 847
609 847
610 847
611 847
612 847
613 847
614 847
615 847
616 847
617 847
618 847
619 847
620 847
621 847
622 847
623 847
624 847
625 847
626 847
627 847
628 847
629 847
630 847
631 847
632 847
633 847
634 847
635 847
636 847
637 847
638 847
639 847
640 847
641 847
642 847
643 847
644 847
645 847
646 847
647 847
648 847
649 847
650 847
651 847
652 847
653 847
654 847
655 847
656 847
657 847
658 847
659 847
660 847
661 847
662 847
663 847
664 847
665 847
666 847
667 847
668 847
669 847
670 847
671 847
672 847
673 847
674 847
675 847
676 847
677 847
678 847
679 847
680 847
681 847
682 847
683 847
684 847
685 847
686 847
687 847
688 847
689 847
690 847
691 847
692 847
693 847
694 847
695 847
696 847
697 847
698 847
699 847
700 847
701 847
702 847
703 847
704 847
705 847
706 847
707 847
708 847
709 847
710 847
711 847
712 847
713 847
714 847
715 847
716 847
717 847
718 847
719 847
720 847
721 847
722 847
723 847
724 847
725 847
726 847
727 847
728 847
729 847
730 847
731 847
732 847
733 847
734 847
735 847
736 847
737 847
738 847
739 847
740 847
741 847
742 847
743 847
744 847
745 847
746 847
747 847
748 847
749 847
750 847
751 847
752 847
753 847
754 847
755 847
756 847
757 847
758 847
759 847
760 847
761 847
762 847
763 847
764 847
765 847
766 847
767 847
768 847
769 847
770 847
771 847
772 847
773 847
774 847
775 847
776 847
777 847
778 847
779 847
780 847
781 847
782 847
783 847
784 847
785 847
786 847
787 847
788 847
789 847
790 847
791 847
792 847
793 847
794 847
795 847
796 847
797 847
798 847
799 847
800 847
801 847
802 847
803 847
804 847
805 847
806 847
807 847
808 847
809 847
810 847
811 847
812 847
813 847
814 847
815 847
816 847
817 847
818 847
819 847
820 847
821 847
822 847
823 847
824 847
825 847
826 847
827 847
828 847
829 847
830 847
831 847
832 847
833 847
834 847
835 847
836 847
837 847
838 847
839 847
840 847
841 847
842 847
843 847
844 847
845 847
846 847
847 847
848 847
849 847
850 847
851 847
852 847
853 847
854 847
855 847
856 847
857 847
858 847
859 847
860 847
861 847
862 847
863 847
864 847
865 847
866 847
867 847
868 847
869 847
870 847
871 847
872 847
873 847
874 847
875 847
876 847
877 847
878 847
879 847
880 847
881 847
882 847
883 847
884 847
885 847
886 847
887 847
888 847
889 847
890 847
891 847
892 847
893 847
894 847
895 847
896 847
897 847
898 847
899 847
900 847
901 847
902 847
903 847
904 847
905 847
906 847
907 847
908 847
909 847
910 847
911 847
912 847
913 847
914 847
915 847
916 847
917 847
918 847
919 847
920 847
921 847
922 847
923 847
924 847
925 847
926 847
927 847
928 847
929 847
930 847
931 847
932 847
933 847
934 847
935 847
936 847
937 847
938 847
939 847
940 847
941 847
942 847
943 847
944 847
945 847
946 847
947 847
948 847
949 847
950 847
951 847
952 847
953 847
954 847
955 847
956 847
957 847
958 847
959 847
960 847
961 847
962 847
963 847
964 847
965 847
966 847
967 847
968 847
969 847
970 847
971 847
972 847
973 847
974 847
975 847
976 847
977 847
978 847
979 847
980 847
981 847
982 847
983 847
984 847
985 847
986 847
987 847
988 847
989 847
990 847
991 847
992 847
993 847
994 847
995 847
996 847
997 847
998 847
999 847
Best: [[22,32,20,18,3,4,24],
       [25,15,31],
       [17,8,14,2,13],
       [21,6,26,11,16,10,23,30],
       [27,7,29,5,12,9,19,28]], fitness: 847
